GLPSOL--GLPK LP/MIP Solver 5.0
Parameter(s) specified in the command line:
 --cpxlp --first inputs/new_tr/order/jump_2_50_reverse_tiers_input.lp -o solutions/new_tr/jump_2_50_reverse_tiers_input.lp
Reading problem data from 'inputs/new_tr/order/jump_2_50_reverse_tiers_input.lp'...
inputs/new_tr/order/jump_2_50_reverse_tiers_input.lp:14676: warning: lower bound of variable 'm_18_18' redefined
inputs/new_tr/order/jump_2_50_reverse_tiers_input.lp:14676: warning: upper bound of variable 'm_18_18' redefined
13887 rows, 5051 columns, 42476 non-zeros
5051 integer variables, 4269 of which are binary
19676 lines were read
GLPK Integer Optimizer 5.0
13887 rows, 5051 columns, 42476 non-zeros
5051 integer variables, 4269 of which are binary
Preprocessing...
1149 hidden packing inequaliti(es) were detected
679 hidden covering inequaliti(es) were detected
1390 constraint coefficient(s) were reduced
8938 rows, 3140 columns, 25421 non-zeros
3140 integer variables, 3089 of which are binary
Scaling...
 A: min|aij| =  1.000e+00  max|aij| =  1.024e+04  ratio =  1.024e+04
GM: min|aij| =  3.761e-01  max|aij| =  2.659e+00  ratio =  7.071e+00
EQ: min|aij| =  1.414e-01  max|aij| =  1.000e+00  ratio =  7.071e+00
2N: min|aij| =  1.250e-01  max|aij| =  1.750e+00  ratio =  1.400e+01
Constructing initial basis...
Size of triangular part is 8243
Solving LP relaxation...
GLPK Simplex Optimizer 5.0
8938 rows, 3140 columns, 25421 non-zeros
      0: obj =   2.969600000e+04 inf =   1.550e+03 (875)
Perturbing LP to avoid stalling [199]...
   3911: obj =   6.891152101e+04 inf =   1.059e-06 (0) 35
Removing LP perturbation [4652]...
*  4652: obj =   5.537902703e+04 inf =   2.295e-15 (0) 7
OPTIMAL LP SOLUTION FOUND
Integer optimization begins...
Long-step dual simplex will be used
+  4652: mip =     not found yet >=              -inf        (1; 0)
+ 11812: mip =     not found yet >=   5.538000000e+04        (79; 16)
+ 19215: mip =     not found yet >=   5.538000000e+04        (147; 23)
+ 26795: mip =     not found yet >=   5.538000000e+04        (210; 35)
+ 39509: mip =     not found yet >=   5.538000000e+04        (254; 49)
+ 52046: mip =     not found yet >=   5.538000000e+04        (297; 63)
+ 60848: mip =     not found yet >=   5.538000000e+04        (328; 75)
+ 72363: mip =     not found yet >=   5.538000000e+04        (328; 77)
+ 80969: mip =     not found yet >=   5.538000000e+04        (362; 83)
+ 88334: mip =     not found yet >=   5.538000000e+04        (370; 85)
Time used: 63.0 secs.  Memory used: 15.0 Mb.
+101503: mip =     not found yet >=   5.538000000e+04        (398; 89)
+110543: mip =     not found yet >=   5.538000000e+04        (412; 93)
+121736: mip =     not found yet >=   5.538000000e+04        (415; 95)
+133191: mip =     not found yet >=   5.538000000e+04        (421; 97)
+140198: mip =     not found yet >=   5.538000000e+04        (449; 102)
+147713: mip =     not found yet >=   5.538000000e+04        (478; 103)
+155444: mip =     not found yet >=   5.538000000e+04        (518; 115)
+171293: mip =     not found yet >=   5.538000000e+04        (538; 121)
Time used: 127.7 secs.  Memory used: 16.4 Mb.
+179524: mip =     not found yet >=   5.538000000e+04        (541; 121)
+186534: mip =     not found yet >=   5.538000000e+04        (592; 126)
+198300: mip =     not found yet >=   5.538000000e+04        (604; 127)
+206971: mip =     not found yet >=   5.538000000e+04        (660; 134)
+214335: mip =     not found yet >=   5.538000000e+04        (711; 147)
+221175: mip =     not found yet >=   5.538000000e+04        (803; 164)
+228829: mip =     not found yet >=   5.538000000e+04        (823; 171)
Warning: basis matrix is ill-conditioned (cond = 4.73e+12)
+239798: mip =     not found yet >=   5.538000000e+04        (825; 173)
+246443: mip =     not found yet >=   5.538000000e+04        (853; 174)
Time used: 187.7 secs.  Memory used: 18.3 Mb.
+258697: mip =     not found yet >=   5.538000000e+04        (890; 177)
+266789: mip =     not found yet >=   5.538000000e+04        (928; 187)
+273521: mip =     not found yet >=   5.538000000e+04        (931; 192)
+281014: mip =     not found yet >=   5.538000000e+04        (963; 202)
+290057: mip =     not found yet >=   5.538000000e+04        (997; 206)
+298775: mip =     not found yet >=   5.538000000e+04        (1048; 222)
+307990: mip =     not found yet >=   5.538000000e+04        (1076; 229)
+315001: mip =     not found yet >=   5.538000000e+04        (1092; 233)
+320654: >>>>>   7.372800000e+04 >=   5.538000000e+04  24.9% (1155; 233)
+327765: mip =   7.372800000e+04 >=   5.538000000e+04  24.9% (1191; 344)
+339341: mip =   7.372800000e+04 >=   5.538000000e+04  24.9% (1220; 350)
Time used: 252.0 secs.  Memory used: 20.5 Mb.
+348394: mip =   7.372800000e+04 >=   5.538000000e+04  24.9% (1233; 355)
+359694: mip =   7.372800000e+04 >=   5.538000000e+04  24.9% (1244; 357)
+372402: mip =   7.372800000e+04 >=   5.538000000e+04  24.9% (1258; 360)
#388646: obj =   6.277967281e+04 inf =   0.000e+00 (684) 103 72%
#389000: obj =   6.281759874e+04 inf =   6.324e-13 (0) 4 100%
+389000: mip =   7.372800000e+04 >=   5.538000000e+04  24.9% (1275; 364)
#400101: obj =   6.814629552e+04 inf =   0.000e+00 (757) 120 78%
#401263: obj =   6.817406825e+04 inf =   2.416e-13 (0) 11 78%
+401263: mip =   7.372800000e+04 >=   5.538000000e+04  24.9% (1277; 365)
+415942: mip =   7.372800000e+04 >=   5.538000000e+04  24.9% (1310; 368)
Time used: 316.9 secs.  Memory used: 21.3 Mb.
#432211: obj =   7.050241897e+04 inf =   0.000e+00 (1061) 126 80%
#436227: obj =   7.143565186e+04 inf =   6.384e-16 (0) 38 84%
+436227: mip =   7.372800000e+04 >=   5.538000000e+04  24.9% (1356; 374)
+449101: mip =   7.372800000e+04 >=   5.538000000e+04  24.9% (1386; 385)
+454688: mip =   7.372800000e+04 >=   5.538000000e+04  24.9% (1400; 386)
+461506: mip =   7.372800000e+04 >=   5.538000000e+04  24.9% (1439; 387)
+467784: mip =   7.372800000e+04 >=   5.538000000e+04  24.9% (1444; 390)
+478018: mip =   7.372800000e+04 >=   5.538000000e+04  24.9% (1446; 395)
#491951: obj =   6.829701980e+04 inf =   0.000e+00 (1237) 107 83%
#493613: obj =   6.831168758e+04 inf =   7.105e-15 (0) 27 77%
+493613: mip =   7.372800000e+04 >=   5.538000000e+04  24.9% (1487; 399)
Time used: 381.9 secs.  Memory used: 22.3 Mb.
+504271: mip =   7.372800000e+04 >=   5.538000000e+04  24.9% (1483; 405)
+511827: mip =   7.372800000e+04 >=   5.538000000e+04  24.9% (1534; 416)
+518832: mip =   7.372800000e+04 >=   5.538000000e+04  24.9% (1599; 429)
+525868: mip =   7.372800000e+04 >=   5.538000000e+04  24.9% (1655; 439)
+533923: mip =   7.372800000e+04 >=   5.538000000e+04  24.9% (1700; 443)
+548102: mip =   7.372800000e+04 >=   5.538000000e+04  24.9% (1765; 465)
+555891: mip =   7.372800000e+04 >=   5.538000000e+04  24.9% (1780; 468)
+568043: mip =   7.372800000e+04 >=   5.538000000e+04  24.9% (1818; 475)
+574111: mip =   7.372800000e+04 >=   5.538000000e+04  24.9% (1831; 479)
Time used: 444.2 secs.  Memory used: 24.5 Mb.
#586319: obj =   6.824972547e+04 inf =   0.000e+00 (510) 110 81%
#586884: obj =   6.827415145e+04 inf =   0.000e+00 (0) 6 63%
+586884: mip =   7.372800000e+04 >=   5.538000000e+04  24.9% (1831; 481)
+593411: mip =   7.372800000e+04 >=   5.538000000e+04  24.9% (1847; 483)
+600988: mip =   7.372800000e+04 >=   5.538000000e+04  24.9% (1860; 486)
+609250: mip =   7.372800000e+04 >=   5.538000000e+04  24.9% (1878; 490)
+618948: mip =   7.372800000e+04 >=   5.538000000e+04  24.9% (1918; 498)
+626397: mip =   7.372800000e+04 >=   5.538000000e+04  24.9% (1975; 509)
+638292: mip =   7.372800000e+04 >=   5.538000000e+04  24.9% (2043; 520)
+648664: mip =   7.372800000e+04 >=   5.538000000e+04  24.9% (2052; 521)
Time used: 504.9 secs.  Memory used: 26.4 Mb.
+655374: mip =   7.372800000e+04 >=   5.538000000e+04  24.9% (2147; 528)
+665963: mip =   7.372800000e+04 >=   5.538000000e+04  24.9% (2166; 530)
Warning: basis matrix is ill-conditioned (cond = 6.65e+13)
Warning: basis matrix is ill-conditioned (cond = 6.93e+13)
Warning: basis matrix is ill-conditioned (cond = 8.07e+13)
+676744: mip =   7.372800000e+04 >=   5.538000000e+04  24.9% (2167; 532)
+683505: mip =   7.372800000e+04 >=   5.538000000e+04  24.9% (2185; 535)
+690873: mip =   7.372800000e+04 >=   5.538000000e+04  24.9% (2244; 546)
+698222: mip =   7.372800000e+04 >=   5.538000000e+04  24.9% (2291; 560)
+707899: mip =   7.372800000e+04 >=   5.538000000e+04  24.9% (2308; 567)
+714544: mip =   7.372800000e+04 >=   5.538000000e+04  24.9% (2342; 579)
+722604: mip =   7.372800000e+04 >=   5.538000000e+04  24.9% (2409; 595)
+729521: mip =   7.372800000e+04 >=   5.538000000e+04  24.9% (2435; 604)
Time used: 567.3 secs.  Memory used: 28.8 Mb.
+736255: mip =   7.372800000e+04 >=   5.538000000e+04  24.9% (2473; 611)
+747831: mip =   7.372800000e+04 >=   5.538000000e+04  24.9% (2494; 613)
#761847: obj =   6.529545922e+04 inf =   0.000e+00 (1214) 105 78%
#767877: obj =   6.553600000e+04 inf =   0.000e+00 (459) 55 89%
#768406: obj =   6.553600000e+04 inf =   0.000e+00 (0) 6 100%
+768406: mip =   7.372800000e+04 >=   5.538000000e+04  24.9% (2533; 628)
+774593: mip =   7.372800000e+04 >=   5.538000000e+04  24.9% (2532; 629)
+781179: mip =   7.372800000e+04 >=   5.538000000e+04  24.9% (2565; 636)
+788474: mip =   7.372800000e+04 >=   5.538000000e+04  24.9% (2617; 641)
+796683: mip =   7.372800000e+04 >=   5.538000000e+04  24.9% (2651; 644)
+803136: mip =   7.372800000e+04 >=   5.538000000e+04  24.9% (2657; 653)
+813958: mip =   7.372800000e+04 >=   5.538000000e+04  24.9% (2659; 656)
Time used: 630.5 secs.  Memory used: 30.2 Mb.
#826241: obj =   6.473458823e+04 inf =   0.000e+00 (744) 113 80%
#829838: obj =   6.484566247e+04 inf =   4.454e-17 (0) 34 75%
+829838: mip =   7.372800000e+04 >=   5.538000000e+04  24.9% (2659; 657)
+840843: mip =   7.372800000e+04 >=   5.538000000e+04  24.9% (2689; 661)
Warning: basis matrix is ill-conditioned (cond = 1.85e+13)
#855031: obj =   6.616284775e+04 inf =   0.000e+00 (275) 130 81%
#855257: obj =   6.617784741e+04 inf =   2.309e-17 (0) 2 80%
+855257: mip =   7.372800000e+04 >=   5.538000000e+04  24.9% (2696; 662)
+862530: mip =   7.372800000e+04 >=   5.538000000e+04  24.9% (2720; 672)
+873053: mip =   7.372800000e+04 >=   5.538000000e+04  24.9% (2742; 674)
+881661: mip =   7.372800000e+04 >=   5.538000000e+04  24.9% (2800; 678)
+890239: mip =   7.372800000e+04 >=   5.538000000e+04  24.9% (2843; 685)
Time used: 691.4 secs.  Memory used: 31.6 Mb.
+896312: mip =   7.372800000e+04 >=   5.538000000e+04  24.9% (2896; 688)
+902318: mip =   7.372800000e+04 >=   5.538000000e+04  24.9% (2903; 689)
+910642: mip =   7.372800000e+04 >=   5.538000000e+04  24.9% (2941; 692)
+917210: mip =   7.372800000e+04 >=   5.538000000e+04  24.9% (2975; 697)
+924098: mip =   7.372800000e+04 >=   5.538000000e+04  24.9% (3053; 708)
+931713: mip =   7.372800000e+04 >=   5.538000000e+04  24.9% (3110; 713)
+939575: mip =   7.372800000e+04 >=   5.538000000e+04  24.9% (3170; 722)
+949073: mip =   7.372800000e+04 >=   5.538000000e+04  24.9% (3210; 735)
+957108: mip =   7.372800000e+04 >=   5.538000000e+04  24.9% (3222; 743)
+966164: mip =   7.372800000e+04 >=   5.538000000e+04  24.9% (3231; 746)
+973817: mip =   7.372800000e+04 >=   5.538000000e+04  24.9% (3256; 749)
Time used: 754.4 secs.  Memory used: 34.2 Mb.
+980063: mip =   7.372800000e+04 >=   5.538000000e+04  24.9% (3273; 751)
+985752: mip =   7.372800000e+04 >=   5.538000000e+04  24.9% (3276; 752)
+992878: mip =   7.372800000e+04 >=   5.538000000e+04  24.9% (3276; 753)
+998823: mip =   7.372800000e+04 >=   5.538000000e+04  24.9% (3276; 754)
+1004571: mip =   7.372800000e+04 >=   5.538000000e+04  24.9% (3279; 757)
+1011899: mip =   7.372800000e+04 >=   5.538000000e+04  24.9% (3343; 769)
+1018505: mip =   7.372800000e+04 >=   5.538000000e+04  24.9% (3354; 770)
+1025713: mip =   7.372800000e+04 >=   5.538000000e+04  24.9% (3408; 777)
+1034826: mip =   7.372800000e+04 >=   5.538000000e+04  24.9% (3475; 783)
+1041879: mip =   7.372800000e+04 >=   5.538000000e+04  24.9% (3525; 791)
+1049178: mip =   7.372800000e+04 >=   5.538000000e+04  24.9% (3555; 793)
Time used: 814.4 secs.  Memory used: 36.1 Mb.
+1056616: mip =   7.372800000e+04 >=   5.538000000e+04  24.9% (3614; 796)
+1063374: mip =   7.372800000e+04 >=   5.538000000e+04  24.9% (3635; 804)
+1071180: mip =   7.372800000e+04 >=   5.538000000e+04  24.9% (3670; 810)
+1076628: mip =   7.372800000e+04 >=   5.538000000e+04  24.9% (3673; 810)
#1093537: obj =   7.200043537e+04 inf =   0.000e+00 (623) 124 81%
#1093921: obj =   7.221324613e+04 inf =   0.000e+00 (0) 3 99%
+1093921: mip =   7.372800000e+04 >=   5.538000000e+04  24.9% (3688; 811)
+1102552: mip =   7.372800000e+04 >=   5.538000000e+04  24.9% (3708; 816)
+1112301: mip =   7.372800000e+04 >=   5.538000000e+04  24.9% (3722; 819)
+1122347: mip =   7.372800000e+04 >=   5.538000000e+04  24.9% (3780; 827)
Time used: 874.7 secs.  Memory used: 37.7 Mb.
+1130997: mip =   7.372800000e+04 >=   5.538000000e+04  24.9% (3794; 829)
+1140114: mip =   7.372800000e+04 >=   5.538000000e+04  24.9% (3808; 831)
+1147350: mip =   7.372800000e+04 >=   5.538000000e+04  24.9% (3814; 831)
+1154540: mip =   7.372800000e+04 >=   5.538000000e+04  24.9% (3833; 833)
+1161758: mip =   7.372800000e+04 >=   5.538000000e+04  24.9% (3853; 836)
+1169087: mip =   7.372800000e+04 >=   5.538000000e+04  24.9% (3863; 841)
+1177078: mip =   7.372800000e+04 >=   5.538000000e+04  24.9% (3931; 844)
+1183737: mip =   7.372800000e+04 >=   5.538000000e+04  24.9% (3975; 848)
+1192774: mip =   7.372800000e+04 >=   5.538000000e+04  24.9% (4012; 849)
+1200731: mip =   7.372800000e+04 >=   5.538000000e+04  24.9% (4043; 874)
+1209305: mip =   7.372800000e+04 >=   5.538000000e+04  24.9% (4070; 876)
Time used: 935.0 secs.  Memory used: 39.4 Mb.
+1219486: mip =   7.372800000e+04 >=   5.538000000e+04  24.9% (4102; 881)
+1228339: mip =   7.372800000e+04 >=   5.538000000e+04  24.9% (4145; 897)
+1235488: mip =   7.372800000e+04 >=   5.538000000e+04  24.9% (4207; 902)
+1242394: mip =   7.372800000e+04 >=   5.538000000e+04  24.9% (4278; 923)
+1248556: mip =   7.372800000e+04 >=   5.538000000e+04  24.9% (4291; 926)
+1254959: mip =   7.372800000e+04 >=   5.538000000e+04  24.9% (4354; 938)
+1262828: mip =   7.372800000e+04 >=   5.538000000e+04  24.9% (4404; 949)
+1269919: mip =   7.372800000e+04 >=   5.538000000e+04  24.9% (4414; 958)
+1276024: mip =   7.372800000e+04 >=   5.538000000e+04  24.9% (4458; 965)
+1288714: mip =   7.372800000e+04 >=   5.538000000e+04  24.9% (4470; 971)
Time used: 996.9 secs.  Memory used: 41.7 Mb.
#1303528: obj =   7.051348978e+04 inf =   0.000e+00 (939) 107 81%
#1305346: obj =   7.082752000e+04 inf =   0.000e+00 (0) 18 98%
+1305346: mip =   7.372800000e+04 >=   5.538000000e+04  24.9% (4482; 977)
+1312184: mip =   7.372800000e+04 >=   5.538000000e+04  24.9% (4483; 978)
+1318880: mip =   7.372800000e+04 >=   5.538000000e+04  24.9% (4522; 985)
+1326378: mip =   7.372800000e+04 >=   5.538000000e+04  24.9% (4559; 999)
+1336291: mip =   7.372800000e+04 >=   5.538000000e+04  24.9% (4576; 1003)
+1343703: mip =   7.372800000e+04 >=   5.538000000e+04  24.9% (4582; 1004)
+1349462: mip =   7.372800000e+04 >=   5.538000000e+04  24.9% (4586; 1004)
+1356485: mip =   7.372800000e+04 >=   5.538000000e+04  24.9% (4643; 1016)
+1364079: mip =   7.372800000e+04 >=   5.538000000e+04  24.9% (4739; 1024)
Time used: 1057.3 secs.  Memory used: 44.2 Mb.
+1373715: mip =   7.372800000e+04 >=   5.538000000e+04  24.9% (4751; 1032)
+1379962: mip =   7.372800000e+04 >=   5.538000000e+04  24.9% (4778; 1055)
+1387051: mip =   7.372800000e+04 >=   5.538000000e+04  24.9% (4824; 1059)
+1393996: mip =   7.372800000e+04 >=   5.538000000e+04  24.9% (4867; 1072)
+1401736: mip =   7.372800000e+04 >=   5.538000000e+04  24.9% (4917; 1077)
+1409861: mip =   7.372800000e+04 >=   5.538000000e+04  24.9% (4961; 1085)
+1417658: mip =   7.372800000e+04 >=   5.538000000e+04  24.9% (5015; 1087)
+1425459: mip =   7.372800000e+04 >=   5.538000000e+04  24.9% (5075; 1098)
+1433619: mip =   7.372800000e+04 >=   5.538000000e+04  24.9% (5147; 1109)
+1443998: mip =   7.372800000e+04 >=   5.538000000e+04  24.9% (5182; 1113)
Time used: 1117.4 secs.  Memory used: 46.9 Mb.
+1451260: mip =   7.372800000e+04 >=   5.538000000e+04  24.9% (5209; 1122)
+1458868: mip =   7.372800000e+04 >=   5.538000000e+04  24.9% (5238; 1132)
+1466444: mip =   7.372800000e+04 >=   5.538000000e+04  24.9% (5296; 1140)
+1473709: mip =   7.372800000e+04 >=   5.538000000e+04  24.9% (5344; 1144)
+1483905: mip =   7.372800000e+04 >=   5.538000000e+04  24.9% (5378; 1154)
+1490969: mip =   7.372800000e+04 >=   5.538000000e+04  24.9% (5436; 1163)
+1498985: mip =   7.372800000e+04 >=   5.538000000e+04  24.9% (5490; 1182)
+1508942: mip =   7.372800000e+04 >=   5.538000000e+04  24.9% (5565; 1196)
#1521919: obj =   6.884036457e+04 inf =   0.000e+00 (492) 131 82%
#1524031: obj =   6.946848073e+04 inf =   0.000e+00 (0) 19 91%
+1524031: mip =   7.372800000e+04 >=   5.538000000e+04  24.9% (5567; 1199)
+1531370: mip =   7.372800000e+04 >=   5.538000000e+04  24.9% (5581; 1201)
Time used: 1177.4 secs.  Memory used: 49.2 Mb.
+1540500: mip =   7.372800000e+04 >=   5.538000000e+04  24.9% (5613; 1210)
+1548445: mip =   7.372800000e+04 >=   5.538000000e+04  24.9% (5702; 1218)
+1557222: mip =   7.372800000e+04 >=   5.538000000e+04  24.9% (5746; 1232)
+1565590: mip =   7.372800000e+04 >=   5.538000000e+04  24.9% (5790; 1235)
+1573361: mip =   7.372800000e+04 >=   5.538000000e+04  24.9% (5859; 1248)
Warning: basis matrix is ill-conditioned (cond = 4.51e+12)
+1587678: mip =   7.372800000e+04 >=   5.538000000e+04  24.9% (5882; 1259)
+1594580: mip =   7.372800000e+04 >=   5.538000000e+04  24.9% (5888; 1260)
+1602402: mip =   7.372800000e+04 >=   5.538000000e+04  24.9% (5938; 1274)
+1611004: mip =   7.372800000e+04 >=   5.538000000e+04  24.9% (5957; 1279)
+1618808: mip =   7.372800000e+04 >=   5.538000000e+04  24.9% (6009; 1297)
Time used: 1237.6 secs.  Memory used: 52.4 Mb.
+1626441: mip =   7.372800000e+04 >=   5.538000000e+04  24.9% (6060; 1307)
+1643568: mip =   7.372800000e+04 >=   5.538000000e+04  24.9% (6100; 1315)
+1650408: mip =   7.372800000e+04 >=   5.538000000e+04  24.9% (6129; 1322)
+1657648: mip =   7.372800000e+04 >=   5.538000000e+04  24.9% (6171; 1327)
+1672282: mip =   7.372800000e+04 >=   5.538000000e+04  24.9% (6227; 1333)
+1678992: mip =   7.372800000e+04 >=   5.538000000e+04  24.9% (6248; 1345)
+1688224: mip =   7.372800000e+04 >=   5.538000000e+04  24.9% (6297; 1350)
+1698535: mip =   7.372800000e+04 >=   5.538000000e+04  24.9% (6319; 1353)
Time used: 1299.4 secs.  Memory used: 54.5 Mb.
+1705255: mip =   7.372800000e+04 >=   5.538000000e+04  24.9% (6341; 1356)
+1714816: mip =   7.372800000e+04 >=   5.538000000e+04  24.9% (6364; 1364)
+1722016: mip =   7.372800000e+04 >=   5.538000000e+04  24.9% (6410; 1376)
+1730810: mip =   7.372800000e+04 >=   5.538000000e+04  24.9% (6448; 1388)
+1737851: mip =   7.372800000e+04 >=   5.538000000e+04  24.9% (6525; 1404)
+1745593: mip =   7.372800000e+04 >=   5.538000000e+04  24.9% (6617; 1412)
+1752733: mip =   7.372800000e+04 >=   5.538000000e+04  24.9% (6660; 1421)
+1763829: mip =   7.372800000e+04 >=   5.538000000e+04  24.9% (6692; 1427)
+1772588: mip =   7.372800000e+04 >=   5.538000000e+04  24.9% (6723; 1432)
+1779894: mip =   7.372800000e+04 >=   5.538000000e+04  24.9% (6794; 1439)
Time used: 1359.5 secs.  Memory used: 57.6 Mb.
+1788061: mip =   7.372800000e+04 >=   5.538000000e+04  24.9% (6823; 1442)
+1797777: mip =   7.372800000e+04 >=   5.538000000e+04  24.9% (6880; 1448)
+1805910: mip =   7.372800000e+04 >=   5.538000000e+04  24.9% (6914; 1454)
+1812543: mip =   7.372800000e+04 >=   5.538000000e+04  24.9% (6929; 1461)
+1819956: mip =   7.372800000e+04 >=   5.538000000e+04  24.9% (6988; 1464)
+1827057: mip =   7.372800000e+04 >=   5.538000000e+04  24.9% (7077; 1475)
+1835797: mip =   7.372800000e+04 >=   5.538000000e+04  24.9% (7115; 1483)
+1845593: mip =   7.372800000e+04 >=   5.538000000e+04  24.9% (7143; 1490)
+1854633: mip =   7.372800000e+04 >=   5.538000000e+04  24.9% (7162; 1498)
+1861618: mip =   7.372800000e+04 >=   5.538000000e+04  24.9% (7266; 1507)
Time used: 1419.6 secs.  Memory used: 60.3 Mb.
+1869727: mip =   7.372800000e+04 >=   5.538000000e+04  24.9% (7316; 1515)
+1877512: mip =   7.372800000e+04 >=   5.538000000e+04  24.9% (7375; 1522)
+1885913: mip =   7.372800000e+04 >=   5.538000000e+04  24.9% (7457; 1527)
+1893770: mip =   7.372800000e+04 >=   5.538000000e+04  24.9% (7501; 1540)
+1901179: mip =   7.372800000e+04 >=   5.538000000e+04  24.9% (7547; 1554)
+1907540: mip =   7.372800000e+04 >=   5.538000000e+04  24.9% (7592; 1574)
+1919363: mip =   7.372800000e+04 >=   5.538000000e+04  24.9% (7628; 1581)
+1927055: mip =   7.372800000e+04 >=   5.538000000e+04  24.9% (7655; 1597)
+1934196: mip =   7.372800000e+04 >=   5.538000000e+04  24.9% (7723; 1599)
+1941592: mip =   7.372800000e+04 >=   5.538000000e+04  24.9% (7768; 1601)
+1952818: mip =   7.372800000e+04 >=   5.538000000e+04  24.9% (7796; 1603)
Time used: 1479.9 secs.  Memory used: 63.1 Mb.
+1959960: mip =   7.372800000e+04 >=   5.538000000e+04  24.9% (7836; 1606)
+1971151: mip =   7.372800000e+04 >=   5.538000000e+04  24.9% (7882; 1635)
+1979222: mip =   7.372800000e+04 >=   5.538000000e+04  24.9% (7909; 1655)
+1986173: mip =   7.372800000e+04 >=   5.538000000e+04  24.9% (7973; 1666)
+1993154: mip =   7.372800000e+04 >=   5.538000000e+04  24.9% (8019; 1683)
+2000235: mip =   7.372800000e+04 >=   5.538000000e+04  24.9% (8081; 1695)
+2007809: mip =   7.372800000e+04 >=   5.538000000e+04  24.9% (8140; 1709)
+2015594: mip =   7.372800000e+04 >=   5.538000000e+04  24.9% (8166; 1711)
+2023096: mip =   7.372800000e+04 >=   5.538000000e+04  24.9% (8253; 1724)
+2030013: mip =   7.372800000e+04 >=   5.538000000e+04  24.9% (8309; 1733)
+2037376: mip =   7.372800000e+04 >=   5.538000000e+04  24.9% (8362; 1741)
Time used: 1540.0 secs.  Memory used: 66.5 Mb.
+2040363: >>>>>   7.270400000e+04 >=   5.538000000e+04  23.8% (8387; 1741)
+2046984: mip =   7.270400000e+04 >=   5.538000000e+04  23.8% (8289; 1959)
+2055563: mip =   7.270400000e+04 >=   5.538000000e+04  23.8% (8349; 1971)
+2064744: mip =   7.270400000e+04 >=   5.538000000e+04  23.8% (8393; 1988)
+2071670: mip =   7.270400000e+04 >=   5.538000000e+04  23.8% (8441; 1995)
+2079049: mip =   7.270400000e+04 >=   5.538000000e+04  23.8% (8467; 2014)
+2090593: mip =   7.270400000e+04 >=   5.538000000e+04  23.8% (8521; 2020)
+2097709: mip =   7.270400000e+04 >=   5.538000000e+04  23.8% (8527; 2020)
+2105757: mip =   7.270400000e+04 >=   5.538000000e+04  23.8% (8529; 2022)
+2112997: mip =   7.270400000e+04 >=   5.538000000e+04  23.8% (8549; 2027)
Time used: 1600.5 secs.  Memory used: 67.6 Mb.
+2119733: mip =   7.270400000e+04 >=   5.538000000e+04  23.8% (8585; 2034)
+2126497: mip =   7.270400000e+04 >=   5.538000000e+04  23.8% (8669; 2046)
+2133452: mip =   7.270400000e+04 >=   5.538000000e+04  23.8% (8753; 2058)
+2140464: mip =   7.270400000e+04 >=   5.538000000e+04  23.8% (8803; 2068)
+2149295: mip =   7.270400000e+04 >=   5.538000000e+04  23.8% (8810; 2073)
+2155859: mip =   7.270400000e+04 >=   5.538000000e+04  23.8% (8811; 2078)
+2162997: mip =   7.270400000e+04 >=   5.538000000e+04  23.8% (8867; 2085)
+2164614: >>>>>   7.065600000e+04 >=   5.538000000e+04  21.6% (8882; 2085)
+2171569: mip =   7.065600000e+04 >=   5.538000000e+04  21.6% (8843; 2346)
+2179062: mip =   7.065600000e+04 >=   5.538000000e+04  21.6% (8872; 2354)
+2190616: mip =   7.065600000e+04 >=   5.538000000e+04  21.6% (8872; 2357)
+2197285: mip =   7.065600000e+04 >=   5.538000000e+04  21.6% (8869; 2367)
Time used: 1660.6 secs.  Memory used: 69.5 Mb.
+2206706: mip =   7.065600000e+04 >=   5.538000000e+04  21.6% (8953; 2379)
+2213668: mip =   7.065600000e+04 >=   5.538000000e+04  21.6% (8995; 2391)
+2220960: mip =   7.065600000e+04 >=   5.538000000e+04  21.6% (9040; 2401)
Warning: basis matrix is ill-conditioned (cond = 5.16e+12)
Warning: basis matrix is ill-conditioned (cond = 5.18e+12)
Warning: basis matrix is ill-conditioned (cond = 5.16e+12)
+2227046: mip =   7.065600000e+04 >=   5.538000000e+04  21.6% (9068; 2403)
+2242694: mip =   7.065600000e+04 >=   5.538000000e+04  21.6% (9080; 2407)
+2252762: mip =   7.065600000e+04 >=   5.538000000e+04  21.6% (9081; 2408)
+2264607: mip =   7.065600000e+04 >=   5.538000000e+04  21.6% (9082; 2414)
+2271693: mip =   7.065600000e+04 >=   5.538000000e+04  21.6% (9124; 2431)
#2283564: obj =   5.689550886e+04 inf =   0.000e+00 (1055) 109 79%
#2284404: obj =   5.689638105e+04 inf =   2.132e-14 (0) 8 85%
+2284404: mip =   7.065600000e+04 >=   5.538000000e+04  21.6% (9124; 2433)
Time used: 1729.3 secs.  Memory used: 70.2 Mb.
+2295928: mip =   7.065600000e+04 >=   5.538000000e+04  21.6% (9125; 2433)
+2303219: mip =   7.065600000e+04 >=   5.538000000e+04  21.6% (9207; 2448)
+2310128: mip =   7.065600000e+04 >=   5.538000000e+04  21.6% (9259; 2457)
+2317200: mip =   7.065600000e+04 >=   5.538000000e+04  21.6% (9355; 2466)
+2324450: mip =   7.065600000e+04 >=   5.538000000e+04  21.6% (9381; 2474)
+2332739: mip =   7.065600000e+04 >=   5.538000000e+04  21.6% (9425; 2477)
+2339739: mip =   7.065600000e+04 >=   5.538000000e+04  21.6% (9499; 2488)
+2346706: mip =   7.065600000e+04 >=   5.538000000e+04  21.6% (9573; 2494)
+2356807: mip =   7.065600000e+04 >=   5.538000000e+04  21.6% (9618; 2513)
+2363787: mip =   7.065600000e+04 >=   5.538000000e+04  21.6% (9665; 2517)
Time used: 1789.3 secs.  Memory used: 73.7 Mb.
+2371776: mip =   7.065600000e+04 >=   5.538000000e+04  21.6% (9697; 2537)
